etc/upTests/expr2/0007.eprime.solution
language ESSENCE' 1.0
$ minion Nodes: 6
$ minion TotalTime: 0.003582
$ Savile Row TotalTime: 1.389
letting x_SetExplicitVarSize_tuple2 be [2, 14;int(1..2)]
letting x_SetOccurrence be [false, false, true, false, false, false, false, false, false, false, false, false, false, false, true;int(0..14)]
letting x_SetExplicitVarSize_tuple1 be [true, true;int(1..2)]
